
Gurobi 9.5.2 (mac64[arm]) logging started Mon Apr 24 21:13:07 2023

Set parameter LogFile to value "Java/output/pure_mip/scenario_seed_4_nJob_50_machineCount_1/mip_increment_1/log.txt"
Gurobi Optimizer version 9.5.2 build v9.5.2rc0 (mac64[arm])
Thread count: 8 physical cores, 8 logical processors, using up to 8 threads
Optimize a model with 2660 rows, 58838 columns and 707107 nonzeros
Model fingerprint: 0xcf4ea3d8
Variable types: 0 continuous, 58838 integer (58838 binary)
Coefficient statistics:
  Matrix range     [1e+00, 4e+02]
  Objective range  [5e+00, 1e+07]
  Bounds range     [1e+00, 1e+00]
  RHS range        [1e+00, 1e+00]
Presolve removed 29 rows and 3916 columns
Presolve time: 0.69s
Presolved: 2631 rows, 54922 columns, 652903 nonzeros
Variable types: 0 continuous, 54922 integer (54892 binary)

Root simplex log...

Iteration    Objective       Primal Inf.    Dual Inf.      Time
   24530    2.5448721e+04   4.989483e+04   0.000000e+00      5s
   49851    2.7442738e+04   6.006309e+04   0.000000e+00     10s
   66295    2.7739565e+04   0.000000e+00   0.000000e+00     14s

Root relaxation: objective 2.773956e+04, 66295 iterations, 13.17 seconds (34.85 work units)

    Nodes    |    Current Node    |     Objective Bounds      |     Work
 Expl Unexpl |  Obj  Depth IntInf | Incumbent    BestBd   Gap | It/Node Time

     0     0 27739.5648    0  490          - 27739.5648      -     -   14s
     0     0 27759.7217    0  743          - 27759.7217      -     -   19s
     0     0 27763.9710    0  814          - 27763.9710      -     -   22s
     0     0 27764.0015    0  816          - 27764.0015      -     -   22s
     0     0 27764.0022    0  821          - 27764.0022      -     -   22s
     0     0 27777.5870    0  851          - 27777.5870      -     -   26s
     0     0 27784.0025    0  945          - 27784.0025      -     -   33s
     0     0 27784.7796    0  934          - 27784.7796      -     -   38s
     0     0 27784.7849    0  935          - 27784.7849      -     -   38s
     0     0 27791.8875    0 1045          - 27791.8875      -     -   46s
     0     0 27793.8145    0 1067          - 27793.8145      -     -   50s
     0     0 27794.6844    0 1048          - 27794.6844      -     -   53s
     0     0 27794.6956    0 1040          - 27794.6956      -     -   54s
     0     0 27800.0197    0 1109          - 27800.0197      -     -   59s
     0     0 27800.5583    0 1152          - 27800.5583      -     -   62s
     0     0 27800.6277    0 1154          - 27800.6277      -     -   64s
     0     0 27800.6587    0 1157          - 27800.6587      -     -   65s
     0     0 27800.6589    0 1160          - 27800.6589      -     -   65s
     0     0 27805.6320    0 1129          - 27805.6320      -     -   71s
     0     0 27806.7134    0 1196          - 27806.7134      -     -   74s
     0     0 27806.9741    0 1180          - 27806.9741      -     -   76s
     0     0 27807.0834    0 1194          - 27807.0834      -     -   78s
     0     0 27807.0873    0 1199          - 27807.0873      -     -   78s
     0     0 27809.3972    0 1190          - 27809.3972      -     -   84s
     0     0 27809.9071    0 1223          - 27809.9071      -     -   87s
     0     0 27811.3723    0 1202          - 27811.3723      -     -   94s
     0     0 27811.4824    0 1203          - 27811.4824      -     -   96s
     0     0 27811.5009    0 1221          - 27811.5009      -     -   97s
     0     0 27815.9927    0 1237          - 27815.9927      -     -  102s
     0     0 27816.5023    0 1237          - 27816.5023      -     -  105s
     0     0 27816.5823    0 1237          - 27816.5823      -     -  107s
     0     0 27816.8719    0 1255          - 27816.8719      -     -  108s
     0     0 27816.9140    0 1257          - 27816.9140      -     -  109s
     0     0 27816.9178    0 1287          - 27816.9178      -     -  110s
     0     0 27819.2062    0 1303          - 27819.2062      -     -  114s
     0     0 27819.7993    0 1301          - 27819.7993      -     -  118s
     0     0 27819.8184    0 1316          - 27819.8184      -     -  119s
     0     0 27820.6849    0 1320          - 27820.6849      -     -  123s
     0     0 27820.7768    0 1358          - 27820.7768      -     -  124s
     0     0 27820.8535    0 1359          - 27820.8535      -     -  126s
     0     0 27820.8685    0 1361          - 27820.8685      -     -  126s
     0     0 27822.2136    0 1348          - 27822.2136      -     -  131s
     0     0 27822.6762    0 1354          - 27822.6762      -     -  134s
     0     0 27822.7041    0 1375          - 27822.7041      -     -  135s
     0     0 27823.8492    0 1330          - 27823.8492      -     -  140s
     0     0 27824.0864    0 1379          - 27824.0864      -     -  142s
     0     0 27824.1997    0 1396          - 27824.1997      -     -  144s
     0     0 27824.2116    0 1392          - 27824.2116      -     -  144s
     0     0 27826.2191    0 1331          - 27826.2191      -     -  150s
     0     0 27826.7182    0 1368          - 27826.7182      -     -  154s
     0     0 27827.0222    0 1334          - 27827.0222      -     -  157s
     0     0 27827.0918    0 1357          - 27827.0918      -     -  158s
     0     0 27827.1012    0 1349          - 27827.1012      -     -  159s
     0     0 27828.2866    0 1376          - 27828.2866      -     -  165s
     0     0 27828.5612    0 1376          - 27828.5612      -     -  168s
     0     0 27828.5924    0 1418          - 27828.5924      -     -  168s
     0     0 27830.5311    0 1381          - 27830.5311      -     -  177s
     0     0 27830.8088    0 1408          - 27830.8088      -     -  180s
     0     0 27831.2455    0 1420          - 27831.2455      -     -  183s
     0     0 27831.3470    0 1412          - 27831.3470      -     -  185s
     0     0 27831.3789    0 1440          - 27831.3789      -     -  186s
     0     0 27832.3673    0 1422          - 27832.3673      -     -  191s
     0     0 27832.5466    0 1409          - 27832.5466      -     -  194s
     0     0 27832.6024    0 1423          - 27832.6024      -     -  195s
     0     0 27833.1040    0 1406          - 27833.1040      -     -  198s
     0     0 27833.5933    0 1496          - 27833.5933      -     -  203s
     0     0 27833.6887    0 1494          - 27833.6887      -     -  204s
     0     0 27833.7078    0 1519          - 27833.7078      -     -  205s
     0     0 27834.2927    0 1494          - 27834.2927      -     -  209s
     0     0 27834.4415    0 1479          - 27834.4415      -     -  212s
     0     0 27834.5080    0 1483          - 27834.5080      -     -  213s
     0     0 27834.5306    0 1493          - 27834.5306      -     -  214s
     0     0 27835.0759    0 1501          - 27835.0759      -     -  218s
     0     0 27835.3782    0 1529          - 27835.3782      -     -  222s
     0     0 27835.4375    0 1541          - 27835.4375      -     -  224s
     0     0 27835.8900    0 1542          - 27835.8900      -     -  227s
     0     0 27836.0098    0 1533          - 27836.0098      -     -  229s
     0     0 27836.1905    0 1523          - 27836.1905      -     -  231s
     0     0 27836.2302    0 1546          - 27836.2302      -     -  232s
     0     0 27837.2545    0 1521          - 27837.2545      -     -  238s
     0     0 27837.4122    0 1489          - 27837.4122      -     -  241s
     0     0 27837.4424    0 1551          - 27837.4424      -     -  242s
     0     0 27838.1093    0 1552          - 27838.1093      -     -  246s
     0     0 27838.3607    0 1532          - 27838.3607      -     -  251s
     0     0 27838.4206    0 1569          - 27838.4206      -     -  253s
     0     0 27838.9197    0 1516          - 27838.9197      -     -  257s
     0     0 27839.0009    0 1552          - 27839.0009      -     -  259s
     0     0 27839.0116    0 1572          - 27839.0116      -     -  259s
     0     0 27839.5558    0 1496          - 27839.5558      -     -  263s
H    0     0                    1.054411e+08 27839.5558   100%     -  263s
     0     0 27839.5558    0 1470 1.0544e+08 27839.5558   100%     -  265s
H    0     0                    8.048396e+07 27839.5558   100%     -  307s
H    0     0                    6.320240e+07 27839.5713   100%     -  363s
     0     2 27839.5713    0 1464 6.3202e+07 27839.5713   100%     -  363s
     1     4 27840.0650    1 1462 6.3202e+07 27839.5713   100% 10013  430s
     3     8 27840.1754    2 1506 6.3202e+07 27840.0662   100% 38575  497s
     7    16 27841.0446    3 1578 6.3202e+07 27840.1826   100% 38257  560s
    15    23 27964.3758    4 1399 6.3202e+07 27841.0446   100% 37639  600s

Cutting planes:
  Cover: 8
  Clique: 612
  MIR: 171
  StrongCG: 70
  GUB cover: 434
  Zero half: 7
  RLT: 4

Explored 22 nodes (1183376 simplex iterations) in 600.03 seconds (1805.93 work units)
Thread count was 8 (of 8 available processors)

Solution count 3: 6.32024e+07 8.0484e+07 1.05441e+08 

Time limit reached
Best objective 6.320239800000e+07, best bound 2.784104455605e+04, gap 99.9559%
